39 40
4 16 1
6 19 1
21 9 1
8 4 1
11 2 2
15 10 1
14 12 1
18 5 1
11 31 1
23 5 1
27 28 1
9 2 1
33 17 1
3 35 1
9 27 1
10 14 1
16 26 1
25 30 1
32 2 1
15 31 1
6 31 1
14 33 1
21 10 1
25 16 1
33 13 1
29 8 1
11 21 1
19 13 1
5 26 1
33 11 1
7 32 1
17 29 1
23 20 1
33 1 1
31 16 1
15 13 1
25 24 1
13 22 1
8 26 1
40 40 
40 40 
40 40 
40 40 
40 40 
40 40 
40 40 
40 40 
40 40 
40 40 
40 40 
40 40 
40 40 
40 40 
40 40 
40 40 
40 40 
40 40 
40 40 
40 40 
40 40 
40 40 
40 40 
40 40 
40 40 
40 40 
40 40 
40 40 
40 40 
40 40 
40 40 
40 40 
40 40 
40 40 
40 40 
40 40 
40 40 
40 40 
40 40 
40 40 
